0
1
2
3
4
5
6
7
8
9
10
11
12
13
14
15
16
17
18
19
20
21
22
24
23
25
26
27
28
29
30
31
33
32
34
35
36
37
39
38
40
42
41
43
44
45
46
47
48
49
50
51
52
53
54
55
67
64
65
66
69
68
71
70
73
72
75
74
77
76
79
78
81
80
83
82
85
84
87
86
89
88
91
90
93
92
95
94
97
96
99
98
101
100
103
102
105
104
107
106
109
108
111
110
113
112
115
114
117
116
119
118
195
196
197
198
199
200
201
202
203
204
205
206
207
212
211
210
209
208
213
214
215
216
217
218
219
220
221
222
223
234
235
236
237
238
239
240
241
242
243
244
245
246
247
248
249
250
251
252
253
254
255
256
257
262
261
260
258
259
232
233
231
230
224
229
225
226
227
228
194
193
192
191
190
189
188
187
186
185
184
183
168
167
166
165
169
170
171
172
173
174
175
176
177
178
179
180
181
182
121
120
122
123
124
125
126
127
128
129
130
131
132
133
134
135
136
137
138
139
140
141
142
143
144
145
146
147
148
149
150
151
152
153
154
155
156
157
158
159
160
161
162
163
164
61
62
63
60
59
58
56
57
